# go2_h3ocl

units           metal
boundary        p p f
atom_style      atomic

neighbor        2.0 bin
neigh_modify    every 10 delay 0 check no

read_data	replica-1.lmp

pair_style	deepmd dnnf_ions.pb 
pair_coeff	* *

timestep        0.00050

velocity        all create 300.0 4500 dist gaussian
fix             1 all nvt temp 300.0 300.0 0.010

fix zwall all wall/lj93 zlo EDGE 0.05 3.46 8 zhi EDGE 0.05 3.46 8

thermo_style    multi
thermo_modify flush yes
thermo          100

dump             xyzout all xyz 2 go2_h3ocl_04.xyz
dump_modify      xyzout element C O H Cl Na
dump_modify      xyzout format line "%s %20.15g  %20.15g  %20.15g"
dump_modify      xyzout sort id append yes

#100 ps
run             200000

write_data go2_h3ocl_100ps.data
write_restart go2_h3ocl_100ps.restart
